100
32
2
4
3
2
4
14
10
3
3
1
4
19
5
3
1
14
2
8
17
11
17
19
1
18
5
3
1
17
4
22
6
18
25
2
4
18
7
3
1
20
12
9
1
9
18
19
2
4
16
17
17
21
1
21
24
24
21
1
22
15
3
1
8
9
24
1
21
1
1
2
1
23
2
24
7
9
2
12
21
21
14
12
13
5
15
13
14
2
1
3
2
22
20
12
2
3
9
3
15
2